NAME : n80w20.003.727.tour
COMMENT : Length = 727
COMMENT : Found by LKH [Keld Helsgaun] Tue May  2 05:48:13 2017
TYPE : TOUR
DIMENSION : 81
TOUR_SECTION
1
47
12
51
9
67
35
45
49
42
11
7
4
46
53
70
14
25
3
62
18
21
76
10
31
37
26
74
40
78
43
59
60
56
44
50
57
73
65
52
79
5
54
75
58
29
77
32
36
15
13
41
38
71
17
72
63
27
2
19
68
61
16
28
39
48
20
66
80
23
34
22
8
24
55
33
30
64
6
81
69
-1
EOF
